(declare-sort Nat)
(declare-fun zero () Nat)
(declare-fun succ (Nat) Nat)
(declare-fun plus (Nat Nat) Nat)
(declare-fun total_pred (Nat) Nat)
(declare-fun delta_pred (Nat Nat) Bool)
(assert (forall ((X Nat)) (= X (plus X zero))))
(assert (forall ((X Nat) (Y Nat)) (= (succ (plus X Y)) (plus X (succ Y)))))
(assert (not (= (succ (succ zero)) (plus (succ zero) (succ zero)))))
(check-sat)

